Problem:    compacto
Rows:       4
Columns:    2
Non-zeros:  8
Status:     OPTIMAL
Objective:  lucro = 310 (MAXimum)

   No.   Row name   St   Activity     Lower bound   Upper bound    Marginal
------ ------------ -- ------------- ------------- ------------- -------------
     1 lucro        B            310                             
     2 Disp_Mat_Prima[1]
                    NU            16                          16       3.33333 
     3 Disp_Mat_Prima[2]
                    NU            11                          11       23.3333 
     4 Disp_Mat_Prima[3]
                    B             13                          15 

   No. Column name  St   Activity     Lower bound   Upper bound    Marginal
------ ------------ -- ------------- ------------- ------------- -------------
     1 x[1]         B              7             0               
     2 x[2]         B              2             0               

Karush-Kuhn-Tucker optimality conditions:

KKT.PE: max.abs.err = 0.00e+00 on row 0
        max.rel.err = 0.00e+00 on row 0
        High quality

KKT.PB: max.abs.err = 0.00e+00 on row 0
        max.rel.err = 0.00e+00 on row 0
        High quality

KKT.DE: max.abs.err = 0.00e+00 on column 0
        max.rel.err = 0.00e+00 on column 0
        High quality

KKT.DB: max.abs.err = 0.00e+00 on row 0
        max.rel.err = 0.00e+00 on row 0
        High quality

End of output
